10	5
0	2	1	2
1	2	11	5
2	2	9	6
3	2	10	7
4	1	3
5	1	11
6	1	4
7	1	11
8	1	11
9	1	11
10	1	11
11	0
0	0	0	0	0	0	0
1	10	1	3	2	2	4
2	6	4	2	1	1	4
3	8	4	2	5	3	3
4	1	2	4	2	4	5
5	6	3	2	3	3	5
6	2	2	1	1	5	4
7	2	3	1	2	5	3
8	4	1	4	4	4	1
9	5	5	1	3	3	1
10	3	3	1	3	2	5
11	0	0	0	0	0	0
7	8	8	8	8
